p cnf 372 3024
1 -187 -115 0
-1 187 -115 0
1 187 -116 0
-1 -187 -116 0
20 -187 -127 0
-20 187 -127 0
20 187 -128 0
-20 -187 -128 0
39 -187 -139 0
-39 187 -139 0
39 187 -140 0
-39 -187 -140 0
58 -187 -151 0
-58 187 -151 0
58 187 -152 0
-58 -187 -152 0
77 -187 -163 0
-77 187 -163 0
77 187 -164 0
-77 -187 -164 0
96 -187 -175 0
-96 187 -175 0
96 187 -176 0
-96 -187 -176 0
2 -188 -115 0
-2 188 -115 0
2 188 -116 0
-2 -188 -116 0
21 -188 -127 0
-21 188 -127 0
21 188 -128 0
-21 -188 -128 0
40 -188 -139 0
-40 188 -139 0
40 188 -140 0
-40 -188 -140 0
59 -188 -151 0
-59 188 -151 0
59 188 -152 0
-59 -188 -152 0
78 -188 -163 0
-78 188 -163 0
78 188 -164 0
-78 -188 -164 0
97 -188 -175 0
-97 188 -175 0
97 188 -176 0
-97 -188 -176 0
3 -189 -115 0
-3 189 -115 0
3 189 -116 0
-3 -189 -116 0
22 -189 -127 0
-22 189 -127 0
22 189 -128 0
-22 -189 -128 0
41 -189 -139 0
-41 189 -139 0
41 189 -140 0
-41 -189 -140 0
60 -189 -151 0
-60 189 -151 0
60 189 -152 0
-60 -189 -152 0
79 -189 -163 0
-79 189 -163 0
79 189 -164 0
-79 -189 -164 0
98 -189 -175 0
-98 189 -175 0
98 189 -176 0
-98 -189 -176 0
4 -115 0
4 -116 0
115 -115 0
116 -116 0
23 -127 0
23 -128 0
127 -127 0
128 -128 0
42 -139 0
42 -140 0
139 -139 0
140 -140 0
61 -151 0
61 -152 0
151 -151 0
152 -152 0
80 -163 0
80 -164 0
163 -163 0
164 -164 0
99 -175 0
99 -176 0
175 -175 0
176 -176 0
-5 -115 0
-5 -116 0
115 -115 0
116 -116 0
-24 -127 0
-24 -128 0
127 -127 0
128 -128 0
-43 -139 0
-43 -140 0
139 -139 0
140 -140 0
-62 -151 0
-62 -152 0
151 -151 0
152 -152 0
-81 -163 0
-81 -164 0
163 -163 0
164 -164 0
-100 -175 0
-100 -176 0
175 -175 0
176 -176 0
-6 -115 0
-6 -116 0
115 -115 0
116 -116 0
-25 -127 0
-25 -128 0
127 -127 0
128 -128 0
-44 -139 0
-44 -140 0
139 -139 0
140 -140 0
-63 -151 0
-63 -152 0
151 -151 0
152 -152 0
-82 -163 0
-82 -164 0
163 -163 0
164 -164 0
-101 -175 0
-101 -176 0
175 -175 0
176 -176 0
7 -190 -115 0
-7 190 -115 0
7 190 -116 0
-7 -190 -116 0
26 -190 -127 0
-26 190 -127 0
26 190 -128 0
-26 -190 -128 0
45 -190 -139 0
-45 190 -139 0
45 190 -140 0
-45 -190 -140 0
64 -190 -151 0
-64 190 -151 0
64 190 -152 0
-64 -190 -152 0
83 -190 -163 0
-83 190 -163 0
83 190 -164 0
-83 -190 -164 0
102 -190 -175 0
-102 190 -175 0
102 190 -176 0
-102 -190 -176 0
8 -191 -115 0
-8 191 -115 0
8 191 -116 0
-8 -191 -116 0
27 -191 -127 0
-27 191 -127 0
27 191 -128 0
-27 -191 -128 0
46 -191 -139 0
-46 191 -139 0
46 191 -140 0
-46 -191 -140 0
65 -191 -151 0
-65 191 -151 0
65 191 -152 0
-65 -191 -152 0
84 -191 -163 0
-84 191 -163 0
84 191 -164 0
-84 -191 -164 0
103 -191 -175 0
-103 191 -175 0
103 191 -176 0
-103 -191 -176 0
9 -115 0
9 -116 0
115 -115 0
116 -116 0
28 -127 0
28 -128 0
127 -127 0
128 -128 0
47 -139 0
47 -140 0
139 -139 0
140 -140 0
66 -151 0
66 -152 0
151 -151 0
152 -152 0
85 -163 0
85 -164 0
163 -163 0
164 -164 0
104 -175 0
104 -176 0
175 -175 0
176 -176 0
10 -115 0
10 -116 0
115 -115 0
116 -116 0
29 -127 0
29 -128 0
127 -127 0
128 -128 0
48 -139 0
48 -140 0
139 -139 0
140 -140 0
67 -151 0
67 -152 0
151 -151 0
152 -152 0
86 -163 0
86 -164 0
163 -163 0
164 -164 0
105 -175 0
105 -176 0
175 -175 0
176 -176 0
11 -115 0
11 -116 0
115 -115 0
116 -116 0
30 -127 0
30 -128 0
127 -127 0
128 -128 0
49 -139 0
49 -140 0
139 -139 0
140 -140 0
68 -151 0
68 -152 0
151 -151 0
152 -152 0
87 -163 0
87 -164 0
163 -163 0
164 -164 0
106 -175 0
106 -176 0
175 -175 0
176 -176 0
12 -115 0
12 -116 0
115 -115 0
116 -116 0
31 -127 0
31 -128 0
127 -127 0
128 -128 0
50 -139 0
50 -140 0
139 -139 0
140 -140 0
69 -151 0
69 -152 0
151 -151 0
152 -152 0
88 -163 0
88 -164 0
163 -163 0
164 -164 0
107 -175 0
107 -176 0
175 -175 0
176 -176 0
13 -192 -115 0
-13 192 -115 0
13 192 -116 0
-13 -192 -116 0
32 -192 -127 0
-32 192 -127 0
32 192 -128 0
-32 -192 -128 0
51 -192 -139 0
-51 192 -139 0
51 192 -140 0
-51 -192 -140 0
70 -192 -151 0
-70 192 -151 0
70 192 -152 0
-70 -192 -152 0
89 -192 -163 0
-89 192 -163 0
89 192 -164 0
-89 -192 -164 0
108 -192 -175 0
-108 192 -175 0
108 192 -176 0
-108 -192 -176 0
14 -115 0
14 -116 0
115 -115 0
116 -116 0
33 -127 0
33 -128 0
127 -127 0
128 -128 0
52 -139 0
52 -140 0
139 -139 0
140 -140 0
71 -151 0
71 -152 0
151 -151 0
152 -152 0
90 -163 0
90 -164 0
163 -163 0
164 -164 0
109 -175 0
109 -176 0
175 -175 0
176 -176 0
15 -115 0
15 -116 0
115 -115 0
116 -116 0
34 -127 0
34 -128 0
127 -127 0
128 -128 0
53 -139 0
53 -140 0
139 -139 0
140 -140 0
72 -151 0
72 -152 0
151 -151 0
152 -152 0
91 -163 0
91 -164 0
163 -163 0
164 -164 0
110 -175 0
110 -176 0
175 -175 0
176 -176 0
16 -115 0
16 -116 0
115 -115 0
116 -116 0
35 -127 0
35 -128 0
127 -127 0
128 -128 0
54 -139 0
54 -140 0
139 -139 0
140 -140 0
73 -151 0
73 -152 0
151 -151 0
152 -152 0
92 -163 0
92 -164 0
163 -163 0
164 -164 0
111 -175 0
111 -176 0
175 -175 0
176 -176 0
17 -115 0
17 -116 0
115 -115 0
116 -116 0
36 -127 0
36 -128 0
127 -127 0
128 -128 0
55 -139 0
55 -140 0
139 -139 0
140 -140 0
74 -151 0
74 -152 0
151 -151 0
152 -152 0
93 -163 0
93 -164 0
163 -163 0
164 -164 0
112 -175 0
112 -176 0
175 -175 0
176 -176 0
18 -193 -115 0
-18 193 -115 0
18 193 -116 0
-18 -193 -116 0
37 -193 -127 0
-37 193 -127 0
37 193 -128 0
-37 -193 -128 0
56 -193 -139 0
-56 193 -139 0
56 193 -140 0
-56 -193 -140 0
75 -193 -151 0
-75 193 -151 0
75 193 -152 0
-75 -193 -152 0
94 -193 -163 0
-94 193 -163 0
94 193 -164 0
-94 -193 -164 0
113 -193 -175 0
-113 193 -175 0
113 193 -176 0
-113 -193 -176 0
19 -115 0
19 -116 0
115 -115 0
116 -116 0
38 -127 0
38 -128 0
127 -127 0
128 -128 0
57 -139 0
57 -140 0
139 -139 0
140 -140 0
76 -151 0
76 -152 0
151 -151 0
152 -152 0
95 -163 0
95 -164 0
163 -163 0
164 -164 0
114 -175 0
114 -176 0
175 -175 0
176 -176 0
-301 115 0
301 -115 0
-302 116 0
301 -116 0
-301 -115 0
-302 -116 0
-313 115 301 0
313 -115 0
313 -301 0
-314 116 302 0
314 -116 0
314 -302 0
-313 -127 0
-314 -128 0
-325 127 313 0
325 -127 0
325 -313 0
-326 128 314 0
326 -128 0
326 -314 0
-325 -139 0
-326 -140 0
-337 139 325 0
337 -139 0
337 -325 0
-338 140 326 0
338 -140 0
338 -326 0
-337 -151 0
-338 -152 0
-349 151 337 0
349 -151 0
349 -337 0
-350 152 338 0
350 -152 0
350 -338 0
-349 -163 0
-350 -164 0
-361 163 349 0
361 -163 0
361 -349 0
-362 164 350 0
362 -164 0
362 -350 0
-361 -175 0
-362 -176 0
361 0
362 0
1 -117 0
1 -118 0
117 -117 0
118 -118 0
20 -129 0
20 -130 0
129 -129 0
130 -130 0
39 -141 0
39 -142 0
141 -141 0
142 -142 0
58 -153 0
58 -154 0
153 -153 0
154 -154 0
77 -165 0
77 -166 0
165 -165 0
166 -166 0
96 -177 0
96 -178 0
177 -177 0
178 -178 0
-2 -117 0
-2 -118 0
117 -117 0
118 -118 0
-21 -129 0
-21 -130 0
129 -129 0
130 -130 0
-40 -141 0
-40 -142 0
141 -141 0
142 -142 0
-59 -153 0
-59 -154 0
153 -153 0
154 -154 0
-78 -165 0
-78 -166 0
165 -165 0
166 -166 0
-97 -177 0
-97 -178 0
177 -177 0
178 -178 0
-3 -117 0
-3 -118 0
117 -117 0
118 -118 0
-22 -129 0
-22 -130 0
129 -129 0
130 -130 0
-41 -141 0
-41 -142 0
141 -141 0
142 -142 0
-60 -153 0
-60 -154 0
153 -153 0
154 -154 0
-79 -165 0
-79 -166 0
165 -165 0
166 -166 0
-98 -177 0
-98 -178 0
177 -177 0
178 -178 0
4 -117 0
4 -118 0
117 -117 0
118 -118 0
23 -129 0
23 -130 0
129 -129 0
130 -130 0
42 -141 0
42 -142 0
141 -141 0
142 -142 0
61 -153 0
61 -154 0
153 -153 0
154 -154 0
80 -165 0
80 -166 0
165 -165 0
166 -166 0
99 -177 0
99 -178 0
177 -177 0
178 -178 0
-5 -117 0
-5 -118 0
117 -117 0
118 -118 0
-24 -129 0
-24 -130 0
129 -129 0
130 -130 0
-43 -141 0
-43 -142 0
141 -141 0
142 -142 0
-62 -153 0
-62 -154 0
153 -153 0
154 -154 0
-81 -165 0
-81 -166 0
165 -165 0
166 -166 0
-100 -177 0
-100 -178 0
177 -177 0
178 -178 0
-6 -117 0
-6 -118 0
117 -117 0
118 -118 0
-25 -129 0
-25 -130 0
129 -129 0
130 -130 0
-44 -141 0
-44 -142 0
141 -141 0
142 -142 0
-63 -153 0
-63 -154 0
153 -153 0
154 -154 0
-82 -165 0
-82 -166 0
165 -165 0
166 -166 0
-101 -177 0
-101 -178 0
177 -177 0
178 -178 0
7 -117 0
7 -118 0
117 -117 0
118 -118 0
26 -129 0
26 -130 0
129 -129 0
130 -130 0
45 -141 0
45 -142 0
141 -141 0
142 -142 0
64 -153 0
64 -154 0
153 -153 0
154 -154 0
83 -165 0
83 -166 0
165 -165 0
166 -166 0
102 -177 0
102 -178 0
177 -177 0
178 -178 0
8 -117 0
8 -118 0
117 -117 0
118 -118 0
27 -129 0
27 -130 0
129 -129 0
130 -130 0
46 -141 0
46 -142 0
141 -141 0
142 -142 0
65 -153 0
65 -154 0
153 -153 0
154 -154 0
84 -165 0
84 -166 0
165 -165 0
166 -166 0
103 -177 0
103 -178 0
177 -177 0
178 -178 0
9 -117 0
9 -118 0
117 -117 0
118 -118 0
28 -129 0
28 -130 0
129 -129 0
130 -130 0
47 -141 0
47 -142 0
141 -141 0
142 -142 0
66 -153 0
66 -154 0
153 -153 0
154 -154 0
85 -165 0
85 -166 0
165 -165 0
166 -166 0
104 -177 0
104 -178 0
177 -177 0
178 -178 0
10 -117 0
10 -118 0
117 -117 0
118 -118 0
29 -129 0
29 -130 0
129 -129 0
130 -130 0
48 -141 0
48 -142 0
141 -141 0
142 -142 0
67 -153 0
67 -154 0
153 -153 0
154 -154 0
86 -165 0
86 -166 0
165 -165 0
166 -166 0
105 -177 0
105 -178 0
177 -177 0
178 -178 0
11 -117 0
11 -118 0
117 -117 0
118 -118 0
30 -129 0
30 -130 0
129 -129 0
130 -130 0
49 -141 0
49 -142 0
141 -141 0
142 -142 0
68 -153 0
68 -154 0
153 -153 0
154 -154 0
87 -165 0
87 -166 0
165 -165 0
166 -166 0
106 -177 0
106 -178 0
177 -177 0
178 -178 0
12 -117 0
12 -118 0
117 -117 0
118 -118 0
31 -129 0
31 -130 0
129 -129 0
130 -130 0
50 -141 0
50 -142 0
141 -141 0
142 -142 0
69 -153 0
69 -154 0
153 -153 0
154 -154 0
88 -165 0
88 -166 0
165 -165 0
166 -166 0
107 -177 0
107 -178 0
177 -177 0
178 -178 0
13 -194 -117 0
-13 194 -117 0
13 194 -118 0
-13 -194 -118 0
32 -194 -129 0
-32 194 -129 0
32 194 -130 0
-32 -194 -130 0
51 -194 -141 0
-51 194 -141 0
51 194 -142 0
-51 -194 -142 0
70 -194 -153 0
-70 194 -153 0
70 194 -154 0
-70 -194 -154 0
89 -194 -165 0
-89 194 -165 0
89 194 -166 0
-89 -194 -166 0
108 -194 -177 0
-108 194 -177 0
108 194 -178 0
-108 -194 -178 0
14 -117 0
14 -118 0
117 -117 0
118 -118 0
33 -129 0
33 -130 0
129 -129 0
130 -130 0
52 -141 0
52 -142 0
141 -141 0
142 -142 0
71 -153 0
71 -154 0
153 -153 0
154 -154 0
90 -165 0
90 -166 0
165 -165 0
166 -166 0
109 -177 0
109 -178 0
177 -177 0
178 -178 0
15 -195 -117 0
-15 195 -117 0
15 195 -118 0
-15 -195 -118 0
34 -195 -129 0
-34 195 -129 0
34 195 -130 0
-34 -195 -130 0
53 -195 -141 0
-53 195 -141 0
53 195 -142 0
-53 -195 -142 0
72 -195 -153 0
-72 195 -153 0
72 195 -154 0
-72 -195 -154 0
91 -195 -165 0
-91 195 -165 0
91 195 -166 0
-91 -195 -166 0
110 -195 -177 0
-110 195 -177 0
110 195 -178 0
-110 -195 -178 0
16 -117 0
16 -118 0
117 -117 0
118 -118 0
35 -129 0
35 -130 0
129 -129 0
130 -130 0
54 -141 0
54 -142 0
141 -141 0
142 -142 0
73 -153 0
73 -154 0
153 -153 0
154 -154 0
92 -165 0
92 -166 0
165 -165 0
166 -166 0
111 -177 0
111 -178 0
177 -177 0
178 -178 0
17 -117 0
17 -118 0
117 -117 0
118 -118 0
36 -129 0
36 -130 0
129 -129 0
130 -130 0
55 -141 0
55 -142 0
141 -141 0
142 -142 0
74 -153 0
74 -154 0
153 -153 0
154 -154 0
93 -165 0
93 -166 0
165 -165 0
166 -166 0
112 -177 0
112 -178 0
177 -177 0
178 -178 0
18 -117 0
18 -118 0
117 -117 0
118 -118 0
37 -129 0
37 -130 0
129 -129 0
130 -130 0
56 -141 0
56 -142 0
141 -141 0
142 -142 0
75 -153 0
75 -154 0
153 -153 0
154 -154 0
94 -165 0
94 -166 0
165 -165 0
166 -166 0
113 -177 0
113 -178 0
177 -177 0
178 -178 0
19 -117 0
19 -118 0
117 -117 0
118 -118 0
38 -129 0
38 -130 0
129 -129 0
130 -130 0
57 -141 0
57 -142 0
141 -141 0
142 -142 0
76 -153 0
76 -154 0
153 -153 0
154 -154 0
95 -165 0
95 -166 0
165 -165 0
166 -166 0
114 -177 0
114 -178 0
177 -177 0
178 -178 0
-303 117 0
303 -117 0
-304 118 0
303 -118 0
-303 -117 0
-304 -118 0
-315 117 303 0
315 -117 0
315 -303 0
-316 118 304 0
316 -118 0
316 -304 0
-315 -129 0
-316 -130 0
-327 129 315 0
327 -129 0
327 -315 0
-328 130 316 0
328 -130 0
328 -316 0
-327 -141 0
-328 -142 0
-339 141 327 0
339 -141 0
339 -327 0
-340 142 328 0
340 -142 0
340 -328 0
-339 -153 0
-340 -154 0
-351 153 339 0
351 -153 0
351 -339 0
-352 154 340 0
352 -154 0
352 -340 0
-351 -165 0
-352 -166 0
-363 165 351 0
363 -165 0
363 -351 0
-364 166 352 0
364 -166 0
364 -352 0
-363 -177 0
-364 -178 0
363 0
364 0
1 -196 -119 0
-1 196 -119 0
1 196 -120 0
-1 -196 -120 0
20 -196 -131 0
-20 196 -131 0
20 196 -132 0
-20 -196 -132 0
39 -196 -143 0
-39 196 -143 0
39 196 -144 0
-39 -196 -144 0
58 -196 -155 0
-58 196 -155 0
58 196 -156 0
-58 -196 -156 0
77 -196 -167 0
-77 196 -167 0
77 196 -168 0
-77 -196 -168 0
96 -196 -179 0
-96 196 -179 0
96 196 -180 0
-96 -196 -180 0
2 -197 -119 0
-2 197 -119 0
2 197 -120 0
-2 -197 -120 0
21 -197 -131 0
-21 197 -131 0
21 197 -132 0
-21 -197 -132 0
40 -197 -143 0
-40 197 -143 0
40 197 -144 0
-40 -197 -144 0
59 -197 -155 0
-59 197 -155 0
59 197 -156 0
-59 -197 -156 0
78 -197 -167 0
-78 197 -167 0
78 197 -168 0
-78 -197 -168 0
97 -197 -179 0
-97 197 -179 0
97 197 -180 0
-97 -197 -180 0
3 -119 0
3 -120 0
119 -119 0
120 -120 0
22 -131 0
22 -132 0
131 -131 0
132 -132 0
41 -143 0
41 -144 0
143 -143 0
144 -144 0
60 -155 0
60 -156 0
155 -155 0
156 -156 0
79 -167 0
79 -168 0
167 -167 0
168 -168 0
98 -179 0
98 -180 0
179 -179 0
180 -180 0
4 -119 0
4 -120 0
119 -119 0
120 -120 0
23 -131 0
23 -132 0
131 -131 0
132 -132 0
42 -143 0
42 -144 0
143 -143 0
144 -144 0
61 -155 0
61 -156 0
155 -155 0
156 -156 0
80 -167 0
80 -168 0
167 -167 0
168 -168 0
99 -179 0
99 -180 0
179 -179 0
180 -180 0
-5 -119 0
-5 -120 0
119 -119 0
120 -120 0
-24 -131 0
-24 -132 0
131 -131 0
132 -132 0
-43 -143 0
-43 -144 0
143 -143 0
144 -144 0
-62 -155 0
-62 -156 0
155 -155 0
156 -156 0
-81 -167 0
-81 -168 0
167 -167 0
168 -168 0
-100 -179 0
-100 -180 0
179 -179 0
180 -180 0
-6 -119 0
-6 -120 0
119 -119 0
120 -120 0
-25 -131 0
-25 -132 0
131 -131 0
132 -132 0
-44 -143 0
-44 -144 0
143 -143 0
144 -144 0
-63 -155 0
-63 -156 0
155 -155 0
156 -156 0
-82 -167 0
-82 -168 0
167 -167 0
168 -168 0
-101 -179 0
-101 -180 0
179 -179 0
180 -180 0
7 -198 -119 0
-7 198 -119 0
7 198 -120 0
-7 -198 -120 0
26 -198 -131 0
-26 198 -131 0
26 198 -132 0
-26 -198 -132 0
45 -198 -143 0
-45 198 -143 0
45 198 -144 0
-45 -198 -144 0
64 -198 -155 0
-64 198 -155 0
64 198 -156 0
-64 -198 -156 0
83 -198 -167 0
-83 198 -167 0
83 198 -168 0
-83 -198 -168 0
102 -198 -179 0
-102 198 -179 0
102 198 -180 0
-102 -198 -180 0
8 -199 -119 0
-8 199 -119 0
8 199 -120 0
-8 -199 -120 0
27 -199 -131 0
-27 199 -131 0
27 199 -132 0
-27 -199 -132 0
46 -199 -143 0
-46 199 -143 0
46 199 -144 0
-46 -199 -144 0
65 -199 -155 0
-65 199 -155 0
65 199 -156 0
-65 -199 -156 0
84 -199 -167 0
-84 199 -167 0
84 199 -168 0
-84 -199 -168 0
103 -199 -179 0
-103 199 -179 0
103 199 -180 0
-103 -199 -180 0
9 -119 0
9 -120 0
119 -119 0
120 -120 0
28 -131 0
28 -132 0
131 -131 0
132 -132 0
47 -143 0
47 -144 0
143 -143 0
144 -144 0
66 -155 0
66 -156 0
155 -155 0
156 -156 0
85 -167 0
85 -168 0
167 -167 0
168 -168 0
104 -179 0
104 -180 0
179 -179 0
180 -180 0
10 -119 0
10 -120 0
119 -119 0
120 -120 0
29 -131 0
29 -132 0
131 -131 0
132 -132 0
48 -143 0
48 -144 0
143 -143 0
144 -144 0
67 -155 0
67 -156 0
155 -155 0
156 -156 0
86 -167 0
86 -168 0
167 -167 0
168 -168 0
105 -179 0
105 -180 0
179 -179 0
180 -180 0
11 -119 0
11 -120 0
119 -119 0
120 -120 0
30 -131 0
30 -132 0
131 -131 0
132 -132 0
49 -143 0
49 -144 0
143 -143 0
144 -144 0
68 -155 0
68 -156 0
155 -155 0
156 -156 0
87 -167 0
87 -168 0
167 -167 0
168 -168 0
106 -179 0
106 -180 0
179 -179 0
180 -180 0
12 -119 0
12 -120 0
119 -119 0
120 -120 0
31 -131 0
31 -132 0
131 -131 0
132 -132 0
50 -143 0
50 -144 0
143 -143 0
144 -144 0
69 -155 0
69 -156 0
155 -155 0
156 -156 0
88 -167 0
88 -168 0
167 -167 0
168 -168 0
107 -179 0
107 -180 0
179 -179 0
180 -180 0
13 -200 -119 0
-13 200 -119 0
13 200 -120 0
-13 -200 -120 0
32 -200 -131 0
-32 200 -131 0
32 200 -132 0
-32 -200 -132 0
51 -200 -143 0
-51 200 -143 0
51 200 -144 0
-51 -200 -144 0
70 -200 -155 0
-70 200 -155 0
70 200 -156 0
-70 -200 -156 0
89 -200 -167 0
-89 200 -167 0
89 200 -168 0
-89 -200 -168 0
108 -200 -179 0
-108 200 -179 0
108 200 -180 0
-108 -200 -180 0
14 -119 0
14 -120 0
119 -119 0
120 -120 0
33 -131 0
33 -132 0
131 -131 0
132 -132 0
52 -143 0
52 -144 0
143 -143 0
144 -144 0
71 -155 0
71 -156 0
155 -155 0
156 -156 0
90 -167 0
90 -168 0
167 -167 0
168 -168 0
109 -179 0
109 -180 0
179 -179 0
180 -180 0
15 -119 0
15 -120 0
119 -119 0
120 -120 0
34 -131 0
34 -132 0
131 -131 0
132 -132 0
53 -143 0
53 -144 0
143 -143 0
144 -144 0
72 -155 0
72 -156 0
155 -155 0
156 -156 0
91 -167 0
91 -168 0
167 -167 0
168 -168 0
110 -179 0
110 -180 0
179 -179 0
180 -180 0
16 -119 0
16 -120 0
119 -119 0
120 -120 0
35 -131 0
35 -132 0
131 -131 0
132 -132 0
54 -143 0
54 -144 0
143 -143 0
144 -144 0
73 -155 0
73 -156 0
155 -155 0
156 -156 0
92 -167 0
92 -168 0
167 -167 0
168 -168 0
111 -179 0
111 -180 0
179 -179 0
180 -180 0
17 -119 0
17 -120 0
119 -119 0
120 -120 0
36 -131 0
36 -132 0
131 -131 0
132 -132 0
55 -143 0
55 -144 0
143 -143 0
144 -144 0
74 -155 0
74 -156 0
155 -155 0
156 -156 0
93 -167 0
93 -168 0
167 -167 0
168 -168 0
112 -179 0
112 -180 0
179 -179 0
180 -180 0
18 -201 -119 0
-18 201 -119 0
18 201 -120 0
-18 -201 -120 0
37 -201 -131 0
-37 201 -131 0
37 201 -132 0
-37 -201 -132 0
56 -201 -143 0
-56 201 -143 0
56 201 -144 0
-56 -201 -144 0
75 -201 -155 0
-75 201 -155 0
75 201 -156 0
-75 -201 -156 0
94 -201 -167 0
-94 201 -167 0
94 201 -168 0
-94 -201 -168 0
113 -201 -179 0
-113 201 -179 0
113 201 -180 0
-113 -201 -180 0
19 -119 0
19 -120 0
119 -119 0
120 -120 0
38 -131 0
38 -132 0
131 -131 0
132 -132 0
57 -143 0
57 -144 0
143 -143 0
144 -144 0
76 -155 0
76 -156 0
155 -155 0
156 -156 0
95 -167 0
95 -168 0
167 -167 0
168 -168 0
114 -179 0
114 -180 0
179 -179 0
180 -180 0
-305 119 0
305 -119 0
-306 120 0
305 -120 0
-305 -119 0
-306 -120 0
-317 119 305 0
317 -119 0
317 -305 0
-318 120 306 0
318 -120 0
318 -306 0
-317 -131 0
-318 -132 0
-329 131 317 0
329 -131 0
329 -317 0
-330 132 318 0
330 -132 0
330 -318 0
-329 -143 0
-330 -144 0
-341 143 329 0
341 -143 0
341 -329 0
-342 144 330 0
342 -144 0
342 -330 0
-341 -155 0
-342 -156 0
-353 155 341 0
353 -155 0
353 -341 0
-354 156 342 0
354 -156 0
354 -342 0
-353 -167 0
-354 -168 0
-365 167 353 0
365 -167 0
365 -353 0
-366 168 354 0
366 -168 0
366 -354 0
-365 -179 0
-366 -180 0
365 0
366 0
1 -121 0
1 -122 0
121 -121 0
122 -122 0
20 -133 0
20 -134 0
133 -133 0
134 -134 0
39 -145 0
39 -146 0
145 -145 0
146 -146 0
58 -157 0
58 -158 0
157 -157 0
158 -158 0
77 -169 0
77 -170 0
169 -169 0
170 -170 0
96 -181 0
96 -182 0
181 -181 0
182 -182 0
-2 -121 0
-2 -122 0
121 -121 0
122 -122 0
-21 -133 0
-21 -134 0
133 -133 0
134 -134 0
-40 -145 0
-40 -146 0
145 -145 0
146 -146 0
-59 -157 0
-59 -158 0
157 -157 0
158 -158 0
-78 -169 0
-78 -170 0
169 -169 0
170 -170 0
-97 -181 0
-97 -182 0
181 -181 0
182 -182 0
-3 -121 0
-3 -122 0
121 -121 0
122 -122 0
-22 -133 0
-22 -134 0
133 -133 0
134 -134 0
-41 -145 0
-41 -146 0
145 -145 0
146 -146 0
-60 -157 0
-60 -158 0
157 -157 0
158 -158 0
-79 -169 0
-79 -170 0
169 -169 0
170 -170 0
-98 -181 0
-98 -182 0
181 -181 0
182 -182 0
4 -121 0
4 -122 0
121 -121 0
122 -122 0
23 -133 0
23 -134 0
133 -133 0
134 -134 0
42 -145 0
42 -146 0
145 -145 0
146 -146 0
61 -157 0
61 -158 0
157 -157 0
158 -158 0
80 -169 0
80 -170 0
169 -169 0
170 -170 0
99 -181 0
99 -182 0
181 -181 0
182 -182 0
-5 -121 0
-5 -122 0
121 -121 0
122 -122 0
-24 -133 0
-24 -134 0
133 -133 0
134 -134 0
-43 -145 0
-43 -146 0
145 -145 0
146 -146 0
-62 -157 0
-62 -158 0
157 -157 0
158 -158 0
-81 -169 0
-81 -170 0
169 -169 0
170 -170 0
-100 -181 0
-100 -182 0
181 -181 0
182 -182 0
-6 -121 0
-6 -122 0
121 -121 0
122 -122 0
-25 -133 0
-25 -134 0
133 -133 0
134 -134 0
-44 -145 0
-44 -146 0
145 -145 0
146 -146 0
-63 -157 0
-63 -158 0
157 -157 0
158 -158 0
-82 -169 0
-82 -170 0
169 -169 0
170 -170 0
-101 -181 0
-101 -182 0
181 -181 0
182 -182 0
7 -121 0
7 -122 0
121 -121 0
122 -122 0
26 -133 0
26 -134 0
133 -133 0
134 -134 0
45 -145 0
45 -146 0
145 -145 0
146 -146 0
64 -157 0
64 -158 0
157 -157 0
158 -158 0
83 -169 0
83 -170 0
169 -169 0
170 -170 0
102 -181 0
102 -182 0
181 -181 0
182 -182 0
8 -121 0
8 -122 0
121 -121 0
122 -122 0
27 -133 0
27 -134 0
133 -133 0
134 -134 0
46 -145 0
46 -146 0
145 -145 0
146 -146 0
65 -157 0
65 -158 0
157 -157 0
158 -158 0
84 -169 0
84 -170 0
169 -169 0
170 -170 0
103 -181 0
103 -182 0
181 -181 0
182 -182 0
9 -121 0
9 -122 0
121 -121 0
122 -122 0
28 -133 0
28 -134 0
133 -133 0
134 -134 0
47 -145 0
47 -146 0
145 -145 0
146 -146 0
66 -157 0
66 -158 0
157 -157 0
158 -158 0
85 -169 0
85 -170 0
169 -169 0
170 -170 0
104 -181 0
104 -182 0
181 -181 0
182 -182 0
10 -121 0
10 -122 0
121 -121 0
122 -122 0
29 -133 0
29 -134 0
133 -133 0
134 -134 0
48 -145 0
48 -146 0
145 -145 0
146 -146 0
67 -157 0
67 -158 0
157 -157 0
158 -158 0
86 -169 0
86 -170 0
169 -169 0
170 -170 0
105 -181 0
105 -182 0
181 -181 0
182 -182 0
11 -121 0
11 -122 0
121 -121 0
122 -122 0
30 -133 0
30 -134 0
133 -133 0
134 -134 0
49 -145 0
49 -146 0
145 -145 0
146 -146 0
68 -157 0
68 -158 0
157 -157 0
158 -158 0
87 -169 0
87 -170 0
169 -169 0
170 -170 0
106 -181 0
106 -182 0
181 -181 0
182 -182 0
12 -121 0
12 -122 0
121 -121 0
122 -122 0
31 -133 0
31 -134 0
133 -133 0
134 -134 0
50 -145 0
50 -146 0
145 -145 0
146 -146 0
69 -157 0
69 -158 0
157 -157 0
158 -158 0
88 -169 0
88 -170 0
169 -169 0
170 -170 0
107 -181 0
107 -182 0
181 -181 0
182 -182 0
-13 -121 0
-13 -122 0
121 -121 0
122 -122 0
-32 -133 0
-32 -134 0
133 -133 0
134 -134 0
-51 -145 0
-51 -146 0
145 -145 0
146 -146 0
-70 -157 0
-70 -158 0
157 -157 0
158 -158 0
-89 -169 0
-89 -170 0
169 -169 0
170 -170 0
-108 -181 0
-108 -182 0
181 -181 0
182 -182 0
14 -121 0
14 -122 0
121 -121 0
122 -122 0
33 -133 0
33 -134 0
133 -133 0
134 -134 0
52 -145 0
52 -146 0
145 -145 0
146 -146 0
71 -157 0
71 -158 0
157 -157 0
158 -158 0
90 -169 0
90 -170 0
169 -169 0
170 -170 0
109 -181 0
109 -182 0
181 -181 0
182 -182 0
15 -202 -121 0
-15 202 -121 0
15 202 -122 0
-15 -202 -122 0
34 -202 -133 0
-34 202 -133 0
34 202 -134 0
-34 -202 -134 0
53 -202 -145 0
-53 202 -145 0
53 202 -146 0
-53 -202 -146 0
72 -202 -157 0
-72 202 -157 0
72 202 -158 0
-72 -202 -158 0
91 -202 -169 0
-91 202 -169 0
91 202 -170 0
-91 -202 -170 0
110 -202 -181 0
-110 202 -181 0
110 202 -182 0
-110 -202 -182 0
16 -203 -121 0
-16 203 -121 0
16 203 -122 0
-16 -203 -122 0
35 -203 -133 0
-35 203 -133 0
35 203 -134 0
-35 -203 -134 0
54 -203 -145 0
-54 203 -145 0
54 203 -146 0
-54 -203 -146 0
73 -203 -157 0
-73 203 -157 0
73 203 -158 0
-73 -203 -158 0
92 -203 -169 0
-92 203 -169 0
92 203 -170 0
-92 -203 -170 0
111 -203 -181 0
-111 203 -181 0
111 203 -182 0
-111 -203 -182 0
17 -121 0
17 -122 0
121 -121 0
122 -122 0
36 -133 0
36 -134 0
133 -133 0
134 -134 0
55 -145 0
55 -146 0
145 -145 0
146 -146 0
74 -157 0
74 -158 0
157 -157 0
158 -158 0
93 -169 0
93 -170 0
169 -169 0
170 -170 0
112 -181 0
112 -182 0
181 -181 0
182 -182 0
18 -121 0
18 -122 0
121 -121 0
122 -122 0
37 -133 0
37 -134 0
133 -133 0
134 -134 0
56 -145 0
56 -146 0
145 -145 0
146 -146 0
75 -157 0
75 -158 0
157 -157 0
158 -158 0
94 -169 0
94 -170 0
169 -169 0
170 -170 0
113 -181 0
113 -182 0
181 -181 0
182 -182 0
19 -204 -121 0
-19 204 -121 0
19 204 -122 0
-19 -204 -122 0
38 -204 -133 0
-38 204 -133 0
38 204 -134 0
-38 -204 -134 0
57 -204 -145 0
-57 204 -145 0
57 204 -146 0
-57 -204 -146 0
76 -204 -157 0
-76 204 -157 0
76 204 -158 0
-76 -204 -158 0
95 -204 -169 0
-95 204 -169 0
95 204 -170 0
-95 -204 -170 0
114 -204 -181 0
-114 204 -181 0
114 204 -182 0
-114 -204 -182 0
-307 121 0
307 -121 0
-308 122 0
307 -122 0
-307 -121 0
-308 -122 0
-319 121 307 0
319 -121 0
319 -307 0
-320 122 308 0
320 -122 0
320 -308 0
-319 -133 0
-320 -134 0
-331 133 319 0
331 -133 0
331 -319 0
-332 134 320 0
332 -134 0
332 -320 0
-331 -145 0
-332 -146 0
-343 145 331 0
343 -145 0
343 -331 0
-344 146 332 0
344 -146 0
344 -332 0
-343 -157 0
-344 -158 0
-355 157 343 0
355 -157 0
355 -343 0
-356 158 344 0
356 -158 0
356 -344 0
-355 -169 0
-356 -170 0
-367 169 355 0
367 -169 0
367 -355 0
-368 170 356 0
368 -170 0
368 -356 0
-367 -181 0
-368 -182 0
367 0
368 0
1 -123 0
1 -124 0
123 -123 0
124 -124 0
20 -135 0
20 -136 0
135 -135 0
136 -136 0
39 -147 0
39 -148 0
147 -147 0
148 -148 0
58 -159 0
58 -160 0
159 -159 0
160 -160 0
77 -171 0
77 -172 0
171 -171 0
172 -172 0
96 -183 0
96 -184 0
183 -183 0
184 -184 0
-2 -123 0
-2 -124 0
123 -123 0
124 -124 0
-21 -135 0
-21 -136 0
135 -135 0
136 -136 0
-40 -147 0
-40 -148 0
147 -147 0
148 -148 0
-59 -159 0
-59 -160 0
159 -159 0
160 -160 0
-78 -171 0
-78 -172 0
171 -171 0
172 -172 0
-97 -183 0
-97 -184 0
183 -183 0
184 -184 0
-3 -123 0
-3 -124 0
123 -123 0
124 -124 0
-22 -135 0
-22 -136 0
135 -135 0
136 -136 0
-41 -147 0
-41 -148 0
147 -147 0
148 -148 0
-60 -159 0
-60 -160 0
159 -159 0
160 -160 0
-79 -171 0
-79 -172 0
171 -171 0
172 -172 0
-98 -183 0
-98 -184 0
183 -183 0
184 -184 0
4 -123 0
4 -124 0
123 -123 0
124 -124 0
23 -135 0
23 -136 0
135 -135 0
136 -136 0
42 -147 0
42 -148 0
147 -147 0
148 -148 0
61 -159 0
61 -160 0
159 -159 0
160 -160 0
80 -171 0
80 -172 0
171 -171 0
172 -172 0
99 -183 0
99 -184 0
183 -183 0
184 -184 0
-5 -123 0
-5 -124 0
123 -123 0
124 -124 0
-24 -135 0
-24 -136 0
135 -135 0
136 -136 0
-43 -147 0
-43 -148 0
147 -147 0
148 -148 0
-62 -159 0
-62 -160 0
159 -159 0
160 -160 0
-81 -171 0
-81 -172 0
171 -171 0
172 -172 0
-100 -183 0
-100 -184 0
183 -183 0
184 -184 0
-6 -123 0
-6 -124 0
123 -123 0
124 -124 0
-25 -135 0
-25 -136 0
135 -135 0
136 -136 0
-44 -147 0
-44 -148 0
147 -147 0
148 -148 0
-63 -159 0
-63 -160 0
159 -159 0
160 -160 0
-82 -171 0
-82 -172 0
171 -171 0
172 -172 0
-101 -183 0
-101 -184 0
183 -183 0
184 -184 0
7 -123 0
7 -124 0
123 -123 0
124 -124 0
26 -135 0
26 -136 0
135 -135 0
136 -136 0
45 -147 0
45 -148 0
147 -147 0
148 -148 0
64 -159 0
64 -160 0
159 -159 0
160 -160 0
83 -171 0
83 -172 0
171 -171 0
172 -172 0
102 -183 0
102 -184 0
183 -183 0
184 -184 0
8 -205 -123 0
-8 205 -123 0
8 205 -124 0
-8 -205 -124 0
27 -205 -135 0
-27 205 -135 0
27 205 -136 0
-27 -205 -136 0
46 -205 -147 0
-46 205 -147 0
46 205 -148 0
-46 -205 -148 0
65 -205 -159 0
-65 205 -159 0
65 205 -160 0
-65 -205 -160 0
84 -205 -171 0
-84 205 -171 0
84 205 -172 0
-84 -205 -172 0
103 -205 -183 0
-103 205 -183 0
103 205 -184 0
-103 -205 -184 0
9 -123 0
9 -124 0
123 -123 0
124 -124 0
28 -135 0
28 -136 0
135 -135 0
136 -136 0
47 -147 0
47 -148 0
147 -147 0
148 -148 0
66 -159 0
66 -160 0
159 -159 0
160 -160 0
85 -171 0
85 -172 0
171 -171 0
172 -172 0
104 -183 0
104 -184 0
183 -183 0
184 -184 0
10 -206 -123 0
-10 206 -123 0
10 206 -124 0
-10 -206 -124 0
29 -206 -135 0
-29 206 -135 0
29 206 -136 0
-29 -206 -136 0
48 -206 -147 0
-48 206 -147 0
48 206 -148 0
-48 -206 -148 0
67 -206 -159 0
-67 206 -159 0
67 206 -160 0
-67 -206 -160 0
86 -206 -171 0
-86 206 -171 0
86 206 -172 0
-86 -206 -172 0
105 -206 -183 0
-105 206 -183 0
105 206 -184 0
-105 -206 -184 0
11 -123 0
11 -124 0
123 -123 0
124 -124 0
30 -135 0
30 -136 0
135 -135 0
136 -136 0
49 -147 0
49 -148 0
147 -147 0
148 -148 0
68 -159 0
68 -160 0
159 -159 0
160 -160 0
87 -171 0
87 -172 0
171 -171 0
172 -172 0
106 -183 0
106 -184 0
183 -183 0
184 -184 0
12 -123 0
12 -124 0
123 -123 0
124 -124 0
31 -135 0
31 -136 0
135 -135 0
136 -136 0
50 -147 0
50 -148 0
147 -147 0
148 -148 0
69 -159 0
69 -160 0
159 -159 0
160 -160 0
88 -171 0
88 -172 0
171 -171 0
172 -172 0
107 -183 0
107 -184 0
183 -183 0
184 -184 0
13 -207 -123 0
-13 207 -123 0
13 207 -124 0
-13 -207 -124 0
32 -207 -135 0
-32 207 -135 0
32 207 -136 0
-32 -207 -136 0
51 -207 -147 0
-51 207 -147 0
51 207 -148 0
-51 -207 -148 0
70 -207 -159 0
-70 207 -159 0
70 207 -160 0
-70 -207 -160 0
89 -207 -171 0
-89 207 -171 0
89 207 -172 0
-89 -207 -172 0
108 -207 -183 0
-108 207 -183 0
108 207 -184 0
-108 -207 -184 0
14 -123 0
14 -124 0
123 -123 0
124 -124 0
33 -135 0
33 -136 0
135 -135 0
136 -136 0
52 -147 0
52 -148 0
147 -147 0
148 -148 0
71 -159 0
71 -160 0
159 -159 0
160 -160 0
90 -171 0
90 -172 0
171 -171 0
172 -172 0
109 -183 0
109 -184 0
183 -183 0
184 -184 0
15 -208 -123 0
-15 208 -123 0
15 208 -124 0
-15 -208 -124 0
34 -208 -135 0
-34 208 -135 0
34 208 -136 0
-34 -208 -136 0
53 -208 -147 0
-53 208 -147 0
53 208 -148 0
-53 -208 -148 0
72 -208 -159 0
-72 208 -159 0
72 208 -160 0
-72 -208 -160 0
91 -208 -171 0
-91 208 -171 0
91 208 -172 0
-91 -208 -172 0
110 -208 -183 0
-110 208 -183 0
110 208 -184 0
-110 -208 -184 0
16 -209 -123 0
-16 209 -123 0
16 209 -124 0
-16 -209 -124 0
35 -209 -135 0
-35 209 -135 0
35 209 -136 0
-35 -209 -136 0
54 -209 -147 0
-54 209 -147 0
54 209 -148 0
-54 -209 -148 0
73 -209 -159 0
-73 209 -159 0
73 209 -160 0
-73 -209 -160 0
92 -209 -171 0
-92 209 -171 0
92 209 -172 0
-92 -209 -172 0
111 -209 -183 0
-111 209 -183 0
111 209 -184 0
-111 -209 -184 0
17 -123 0
17 -124 0
123 -123 0
124 -124 0
36 -135 0
36 -136 0
135 -135 0
136 -136 0
55 -147 0
55 -148 0
147 -147 0
148 -148 0
74 -159 0
74 -160 0
159 -159 0
160 -160 0
93 -171 0
93 -172 0
171 -171 0
172 -172 0
112 -183 0
112 -184 0
183 -183 0
184 -184 0
18 -123 0
18 -124 0
123 -123 0
124 -124 0
37 -135 0
37 -136 0
135 -135 0
136 -136 0
56 -147 0
56 -148 0
147 -147 0
148 -148 0
75 -159 0
75 -160 0
159 -159 0
160 -160 0
94 -171 0
94 -172 0
171 -171 0
172 -172 0
113 -183 0
113 -184 0
183 -183 0
184 -184 0
19 -123 0
19 -124 0
123 -123 0
124 -124 0
38 -135 0
38 -136 0
135 -135 0
136 -136 0
57 -147 0
57 -148 0
147 -147 0
148 -148 0
76 -159 0
76 -160 0
159 -159 0
160 -160 0
95 -171 0
95 -172 0
171 -171 0
172 -172 0
114 -183 0
114 -184 0
183 -183 0
184 -184 0
-309 123 0
309 -123 0
-310 124 0
309 -124 0
-309 -123 0
-310 -124 0
-321 123 309 0
321 -123 0
321 -309 0
-322 124 310 0
322 -124 0
322 -310 0
-321 -135 0
-322 -136 0
-333 135 321 0
333 -135 0
333 -321 0
-334 136 322 0
334 -136 0
334 -322 0
-333 -147 0
-334 -148 0
-345 147 333 0
345 -147 0
345 -333 0
-346 148 334 0
346 -148 0
346 -334 0
-345 -159 0
-346 -160 0
-357 159 345 0
357 -159 0
357 -345 0
-358 160 346 0
358 -160 0
358 -346 0
-357 -171 0
-358 -172 0
-369 171 357 0
369 -171 0
369 -357 0
-370 172 358 0
370 -172 0
370 -358 0
-369 -183 0
-370 -184 0
369 0
370 0
1 -125 0
1 -126 0
125 -125 0
126 -126 0
20 -137 0
20 -138 0
137 -137 0
138 -138 0
39 -149 0
39 -150 0
149 -149 0
150 -150 0
58 -161 0
58 -162 0
161 -161 0
162 -162 0
77 -173 0
77 -174 0
173 -173 0
174 -174 0
96 -185 0
96 -186 0
185 -185 0
186 -186 0
-2 -125 0
-2 -126 0
125 -125 0
126 -126 0
-21 -137 0
-21 -138 0
137 -137 0
138 -138 0
-40 -149 0
-40 -150 0
149 -149 0
150 -150 0
-59 -161 0
-59 -162 0
161 -161 0
162 -162 0
-78 -173 0
-78 -174 0
173 -173 0
174 -174 0
-97 -185 0
-97 -186 0
185 -185 0
186 -186 0
-3 -125 0
-3 -126 0
125 -125 0
126 -126 0
-22 -137 0
-22 -138 0
137 -137 0
138 -138 0
-41 -149 0
-41 -150 0
149 -149 0
150 -150 0
-60 -161 0
-60 -162 0
161 -161 0
162 -162 0
-79 -173 0
-79 -174 0
173 -173 0
174 -174 0
-98 -185 0
-98 -186 0
185 -185 0
186 -186 0
4 -125 0
4 -126 0
125 -125 0
126 -126 0
23 -137 0
23 -138 0
137 -137 0
138 -138 0
42 -149 0
42 -150 0
149 -149 0
150 -150 0
61 -161 0
61 -162 0
161 -161 0
162 -162 0
80 -173 0
80 -174 0
173 -173 0
174 -174 0
99 -185 0
99 -186 0
185 -185 0
186 -186 0
-5 -125 0
-5 -126 0
125 -125 0
126 -126 0
-24 -137 0
-24 -138 0
137 -137 0
138 -138 0
-43 -149 0
-43 -150 0
149 -149 0
150 -150 0
-62 -161 0
-62 -162 0
161 -161 0
162 -162 0
-81 -173 0
-81 -174 0
173 -173 0
174 -174 0
-100 -185 0
-100 -186 0
185 -185 0
186 -186 0
-6 -125 0
-6 -126 0
125 -125 0
126 -126 0
-25 -137 0
-25 -138 0
137 -137 0
138 -138 0
-44 -149 0
-44 -150 0
149 -149 0
150 -150 0
-63 -161 0
-63 -162 0
161 -161 0
162 -162 0
-82 -173 0
-82 -174 0
173 -173 0
174 -174 0
-101 -185 0
-101 -186 0
185 -185 0
186 -186 0
7 -125 0
7 -126 0
125 -125 0
126 -126 0
26 -137 0
26 -138 0
137 -137 0
138 -138 0
45 -149 0
45 -150 0
149 -149 0
150 -150 0
64 -161 0
64 -162 0
161 -161 0
162 -162 0
83 -173 0
83 -174 0
173 -173 0
174 -174 0
102 -185 0
102 -186 0
185 -185 0
186 -186 0
8 -125 0
8 -126 0
125 -125 0
126 -126 0
27 -137 0
27 -138 0
137 -137 0
138 -138 0
46 -149 0
46 -150 0
149 -149 0
150 -150 0
65 -161 0
65 -162 0
161 -161 0
162 -162 0
84 -173 0
84 -174 0
173 -173 0
174 -174 0
103 -185 0
103 -186 0
185 -185 0
186 -186 0
9 -125 0
9 -126 0
125 -125 0
126 -126 0
28 -137 0
28 -138 0
137 -137 0
138 -138 0
47 -149 0
47 -150 0
149 -149 0
150 -150 0
66 -161 0
66 -162 0
161 -161 0
162 -162 0
85 -173 0
85 -174 0
173 -173 0
174 -174 0
104 -185 0
104 -186 0
185 -185 0
186 -186 0
10 -125 0
10 -126 0
125 -125 0
126 -126 0
29 -137 0
29 -138 0
137 -137 0
138 -138 0
48 -149 0
48 -150 0
149 -149 0
150 -150 0
67 -161 0
67 -162 0
161 -161 0
162 -162 0
86 -173 0
86 -174 0
173 -173 0
174 -174 0
105 -185 0
105 -186 0
185 -185 0
186 -186 0
11 -125 0
11 -126 0
125 -125 0
126 -126 0
30 -137 0
30 -138 0
137 -137 0
138 -138 0
49 -149 0
49 -150 0
149 -149 0
150 -150 0
68 -161 0
68 -162 0
161 -161 0
162 -162 0
87 -173 0
87 -174 0
173 -173 0
174 -174 0
106 -185 0
106 -186 0
185 -185 0
186 -186 0
12 -125 0
12 -126 0
125 -125 0
126 -126 0
31 -137 0
31 -138 0
137 -137 0
138 -138 0
50 -149 0
50 -150 0
149 -149 0
150 -150 0
69 -161 0
69 -162 0
161 -161 0
162 -162 0
88 -173 0
88 -174 0
173 -173 0
174 -174 0
107 -185 0
107 -186 0
185 -185 0
186 -186 0
13 -210 -125 0
-13 210 -125 0
13 210 -126 0
-13 -210 -126 0
32 -210 -137 0
-32 210 -137 0
32 210 -138 0
-32 -210 -138 0
51 -210 -149 0
-51 210 -149 0
51 210 -150 0
-51 -210 -150 0
70 -210 -161 0
-70 210 -161 0
70 210 -162 0
-70 -210 -162 0
89 -210 -173 0
-89 210 -173 0
89 210 -174 0
-89 -210 -174 0
108 -210 -185 0
-108 210 -185 0
108 210 -186 0
-108 -210 -186 0
14 -125 0
14 -126 0
125 -125 0
126 -126 0
33 -137 0
33 -138 0
137 -137 0
138 -138 0
52 -149 0
52 -150 0
149 -149 0
150 -150 0
71 -161 0
71 -162 0
161 -161 0
162 -162 0
90 -173 0
90 -174 0
173 -173 0
174 -174 0
109 -185 0
109 -186 0
185 -185 0
186 -186 0
-15 -125 0
-15 -126 0
125 -125 0
126 -126 0
-34 -137 0
-34 -138 0
137 -137 0
138 -138 0
-53 -149 0
-53 -150 0
149 -149 0
150 -150 0
-72 -161 0
-72 -162 0
161 -161 0
162 -162 0
-91 -173 0
-91 -174 0
173 -173 0
174 -174 0
-110 -185 0
-110 -186 0
185 -185 0
186 -186 0
16 -125 0
16 -126 0
125 -125 0
126 -126 0
35 -137 0
35 -138 0
137 -137 0
138 -138 0
54 -149 0
54 -150 0
149 -149 0
150 -150 0
73 -161 0
73 -162 0
161 -161 0
162 -162 0
92 -173 0
92 -174 0
173 -173 0
174 -174 0
111 -185 0
111 -186 0
185 -185 0
186 -186 0
17 -125 0
17 -126 0
125 -125 0
126 -126 0
36 -137 0
36 -138 0
137 -137 0
138 -138 0
55 -149 0
55 -150 0
149 -149 0
150 -150 0
74 -161 0
74 -162 0
161 -161 0
162 -162 0
93 -173 0
93 -174 0
173 -173 0
174 -174 0
112 -185 0
112 -186 0
185 -185 0
186 -186 0
18 -125 0
18 -126 0
125 -125 0
126 -126 0
37 -137 0
37 -138 0
137 -137 0
138 -138 0
56 -149 0
56 -150 0
149 -149 0
150 -150 0
75 -161 0
75 -162 0
161 -161 0
162 -162 0
94 -173 0
94 -174 0
173 -173 0
174 -174 0
113 -185 0
113 -186 0
185 -185 0
186 -186 0
19 -125 0
19 -126 0
125 -125 0
126 -126 0
38 -137 0
38 -138 0
137 -137 0
138 -138 0
57 -149 0
57 -150 0
149 -149 0
150 -150 0
76 -161 0
76 -162 0
161 -161 0
162 -162 0
95 -173 0
95 -174 0
173 -173 0
174 -174 0
114 -185 0
114 -186 0
185 -185 0
186 -186 0
-311 125 0
311 -125 0
-312 126 0
311 -126 0
-311 -125 0
-312 -126 0
-323 125 311 0
323 -125 0
323 -311 0
-324 126 312 0
324 -126 0
324 -312 0
-323 -137 0
-324 -138 0
-335 137 323 0
335 -137 0
335 -323 0
-336 138 324 0
336 -138 0
336 -324 0
-335 -149 0
-336 -150 0
-347 149 335 0
347 -149 0
347 -335 0
-348 150 336 0
348 -150 0
348 -336 0
-347 -161 0
-348 -162 0
-359 161 347 0
359 -161 0
359 -347 0
-360 162 348 0
360 -162 0
360 -348 0
-359 -173 0
-360 -174 0
-371 173 359 0
371 -173 0
371 -359 0
-372 174 360 0
372 -174 0
372 -360 0
-371 -185 0
-372 -186 0
371 0
372 0
